c turning on binary mode checking
c parsing input formula with 202048 variables and 780985 clauses
c finished parsing, read 49128243 bytes from proof file
c detected empty clause; start verification via backward checking
c 85149 of 780985 clauses in core                            
c 190141 of 822636 lemmas in core using 3366602 resolution steps
c 0 RAT lemmas in core; 39517 redundant literals in core lemmas
s VERIFIED
c verification time: 12.824 seconds
